2,1,9,1,7,2,4,3,1,1,8,2,5,2,10,2,6,7,3,2;4,1,6,2,7,1,9,2,10,1,3,1,5,3,8,3,1,2,2,6;6,1,4,2,8,1,2,2,7,4,5,1,9,5,10,3,1,3,3,4;6,4,2,5,8,10;4,4,2,3,5,6,8,5,1,5,9,9,7,10,6,9,10,9,3,10;6,3,9,4,7,6,5,4,8,4,2,8,1,6,10,7,3,6,4,10;7,5,4,5,9,7,10,4,6,8,2,7,8,6,1,7,3,8,5,10;4,7,9,8,5,8,7,9,2,9,3,7,1,8,8,9,10,10,6,10;6,5,4,6,7,8,10,5,5,7,3,5,8,7,9,10,2,10,1,9;6,6,7,7,9,6,2,4,10,6,4,9,5,9,8,8,3,9,1,10;7,3,4,8,10,8;9,3,5,5,3,3,1,4;
